Solver command line: []

Read LP format model from file C:\Users\wlhlm\AppData\Local\Temp\tmpd1exxtye.pyomo.lp
Reading time = 2.35 seconds
objective: 961824 rows, 869615 columns, 2156430 nonzeros
Set parameter TimeLimit to value 5000
Set parameter MIPGap to value 0.08
Gurobi Optimizer version 12.0.1 build v12.0.1rc0 (win64 - Windows 11.0 (26100.2))

CPU model: Intel(R) Core(TM) Ultra 7 258V, instruction set [SSE2|AVX|AVX2]
Thread count: 8 physical cores, 8 logical processors, using up to 8 threads

Non-default parameters:
TimeLimit  5000
MIPGap  0.08

Optimize a model with 961824 rows, 869615 columns and 2156430 nonzeros
Model fingerprint: 0xb96d1316
Model has 8783 quadratic constraints
Variable types: 746640 continuous, 122975 integer (105408 binary)
Coefficient statistics:
  Matrix range     [6e-03, 1e+03]
  QMatrix range    [1e+00, 1e+00]
  Objective range  [1e-02, 4e+02]
  Bounds range     [1e+00, 3e+00]
  RHS range        [1e-04, 1e+04]
Presolve removed 763906 rows and 645340 columns
Presolve time: 0.63s
Presolved: 197918 rows, 224275 columns, 621872 nonzeros
Variable types: 149589 continuous, 74686 integer (65902 binary)
Performing another presolve...
Presolve removed 70271 rows and 70271 columns
Presolve time: 4.89s
Deterministic concurrent LP optimizer: primal and dual simplex
Showing primal log only...


Root simplex log...

Iteration    Objective       Primal Inf.    Dual Inf.      Time
       0    2.4410581e+07   7.672864e+07   7.007864e+13      6s
   32103    2.3382567e+07   6.887334e+04   6.867864e+10     10s
Concurrent spin time: 0.00s

Solved with dual simplex

Root simplex log...

Iteration    Objective       Primal Inf.    Dual Inf.      Time
   64056    1.3013958e+07   0.000000e+00   0.000000e+00     11s

Root relaxation: objective 1.301396e+07, 64056 iterations, 4.69 seconds (8.74 work units)
Total elapsed time = 10.86s (DegenMoves)

    Nodes    |    Current Node    |     Objective Bounds      |     Work
 Expl Unexpl |  Obj  Depth IntInf | Incumbent    BestBd   Gap | It/Node Time

     0     0 1.3014e+07    0  865          - 1.3014e+07      -     -   12s
     0     0 1.3020e+07    0  884          - 1.3020e+07      -     -   16s
     0     0 1.3020e+07    0  904          - 1.3020e+07      -     -   19s
     0     0 1.3020e+07    0  901          - 1.3020e+07      -     -   19s
     0     0 1.3020e+07    0  901          - 1.3020e+07      -     -   19s
     0     0 1.3021e+07    0  808          - 1.3021e+07      -     -   21s
     0     0 1.3022e+07    0  815          - 1.3022e+07      -     -   22s
     0     0 1.3022e+07    0  835          - 1.3022e+07      -     -   22s
     0     0 1.3022e+07    0  838          - 1.3022e+07      -     -   23s
     0     0 1.3022e+07    0  686          - 1.3022e+07      -     -   26s
     0     0 1.3022e+07    0  673          - 1.3022e+07      -     -   27s
     0     0 1.3022e+07    0  672          - 1.3022e+07      -     -   27s
     0     0 1.3022e+07    0  679          - 1.3022e+07      -     -   27s
     0     0 1.3022e+07    0  674          - 1.3022e+07      -     -   28s
     0     0 1.3022e+07    0  676          - 1.3022e+07      -     -   29s
     0     0 1.3022e+07    0  682          - 1.3022e+07      -     -   29s
     0     0 1.3022e+07    0  683          - 1.3022e+07      -     -   29s
     0     0 1.3022e+07    0  683          - 1.3022e+07      -     -   30s
     0     0 1.3022e+07    0  663          - 1.3022e+07      -     -   30s
     0     0 1.3022e+07    0  669          - 1.3022e+07      -     -   31s
     0     0 1.3022e+07    0  667          - 1.3022e+07      -     -   31s
     0     0 1.3022e+07    0  666          - 1.3022e+07      -     -   32s
     0     0 1.3022e+07    0  667          - 1.3022e+07      -     -   32s
     0     0 1.3022e+07    0  670          - 1.3022e+07      -     -   33s
     0     0 1.3022e+07    0  670          - 1.3022e+07      -     -   34s
H    0     0                    2.146216e+07 1.3022e+07  39.3%     -   34s
     0     0 1.3022e+07    0  668 2.1462e+07 1.3022e+07  39.3%     -   34s
     0     0 1.3022e+07    0  572 2.1462e+07 1.3022e+07  39.3%     -   35s
H    0     0                    1.954524e+07 1.3022e+07  33.4%     -   40s
     0     2 1.3022e+07    0  564 1.9545e+07 1.3022e+07  33.4%     -   41s
    75    84 1.3026e+07    9  583 1.9545e+07 1.3023e+07  33.4%  37.3   45s
   194   277 1.3026e+07   16  565 1.9545e+07 1.3023e+07  33.4%  17.2   50s
   422   651 1.3026e+07   34  532 1.9545e+07 1.3023e+07  33.4%  12.1   57s
   650  1028 1.3026e+07   52  523 1.9545e+07 1.3023e+07  33.4%   9.6   63s
  1027  1780 1.3027e+07   81  510 1.9545e+07 1.3023e+07  33.4%   8.5   73s
  1779  1881 1.3027e+07  144  490 1.9545e+07 1.3023e+07  33.4%   7.2   81s
H 1784  1881                    1.945492e+07 1.3023e+07  33.1%   7.2   81s
  1880  2097 1.3027e+07  144  491 1.9455e+07 1.3023e+07  33.1%   7.0   92s
  2096  2105 1.3027e+07  164  484 1.9455e+07 1.3023e+07  33.1%   6.7  104s
  2104  2113 1.3027e+07  165  484 1.9455e+07 1.3023e+07  33.1%   6.7  117s
  2112  2380 1.3027e+07  166  484 1.9455e+07 1.3023e+07  33.1%   6.7  130s
  2379  3238 1.3027e+07  192  487 1.9455e+07 1.3023e+07  33.1%   6.4  140s
  3237  3246 1.3028e+07  280  469 1.9455e+07 1.3023e+07  33.1%   5.9  150s
H 3243  3246                    1.668375e+07 1.3023e+07  21.9%   5.9  150s
  3245  4016 1.3028e+07  281  469 1.6684e+07 1.3023e+07  21.9%   5.9  159s
  4015  4629 1.3028e+07  352  464 1.6684e+07 1.3023e+07  21.9%   5.8  167s
  4628  5223 1.3028e+07  402  447 1.6684e+07 1.3023e+07  21.9%   6.1  173s
H 5222  5512                    1.668009e+07 1.3023e+07  21.9%   6.3  182s
H 5286  5512                    1.667853e+07 1.3023e+07  21.9%   6.3  182s
H 5355  5512                    1.667797e+07 1.3023e+07  21.9%   6.3  182s
H 5420  5512                    1.667368e+07 1.3023e+07  21.9%   6.3  182s
  5511  6176 1.3028e+07  493  383 1.6674e+07 1.3023e+07  21.9%   6.2  189s
  6175  6994 1.3029e+07  566  381 1.6674e+07 1.3023e+07  21.9%   6.0  195s
  6993  7688 1.3029e+07  661  355 1.6674e+07 1.3023e+07  21.9%   6.0  202s
H 7687  7688                    1.641541e+07 1.3023e+07  20.7%   5.9  208s
  7688  7689 1.3027e+07  187 15384 1.6415e+07 1.3023e+07  20.7%   5.9  237s
  7690  7690 1.3025e+07  461  865 1.6415e+07 1.3023e+07  20.7%   5.9  250s
  7691  7691 1.3024e+07  130  874 1.6415e+07 1.3023e+07  20.7%   5.9  255s
  7693  7692 1.3027e+07  172  642 1.6415e+07 1.3023e+07  20.7%   5.9  260s
  7698  7696 1.3024e+07  209  610 1.6415e+07 1.3023e+07  20.7%   5.9  266s
  7700  7697 1.3023e+07   12  616 1.6415e+07 1.3023e+07  20.7%   5.9  270s
  7705  7700 1.3028e+07  455  623 1.6415e+07 1.3023e+07  20.7%   5.9  277s
H 7705  7314                    1.640060e+07 1.3023e+07  20.6%   5.9  279s
  7708  7316 1.3025e+07  402  608 1.6401e+07 1.3023e+07  20.6%   5.9  280s
  7711  7318 1.3025e+07  645  604 1.6401e+07 1.3023e+07  20.6%   5.9  285s
H 7714  6954                    1.626484e+07 1.3024e+07  19.9%   5.9  295s
  7720  6958 1.3024e+07   62  630 1.6265e+07 1.3024e+07  19.9%   5.9  302s
  7722  6960 1.3026e+07  650  595 1.6265e+07 1.3024e+07  19.9%   5.9  305s
  7725  6962 1.3027e+07  263  604 1.6265e+07 1.3024e+07  19.9%   5.9  310s
  7728  6964 1.3024e+07  268  616 1.6265e+07 1.3024e+07  19.9%   5.9  316s
  7732  6966 1.3025e+07  497  614 1.6265e+07 1.3024e+07  19.9%   5.8  320s
  7735  6968 1.3024e+07  275  624 1.6265e+07 1.3024e+07  19.9%   5.8  325s
  7739  6971 1.3029e+07  576  628 1.6265e+07 1.3024e+07  19.9%   5.8  330s
  7742  6973 1.3025e+07  395  627 1.6265e+07 1.3024e+07  19.9%   5.8  335s
  7745  6975 1.3024e+07  327  629 1.6265e+07 1.3024e+07  19.9%   5.8  340s
  7751  6980 1.3025e+07  536  868 1.6265e+07 1.3024e+07  19.9%  16.4  353s
  7752  6981 1.3028e+07  336  860 1.6265e+07 1.3024e+07  19.9%  16.4  357s
  7753  6982 1.3029e+07  659  659 1.6265e+07 1.3024e+07  19.9%  16.4  361s
  7758  6985 1.3028e+07  447  628 1.6265e+07 1.3024e+07  19.9%  16.4  365s
  7760  6986 1.3024e+07  378  626 1.6265e+07 1.3024e+07  19.9%  16.4  370s
H 7761  6637                    1.620939e+07 1.3024e+07  19.7%  16.4  371s
H 7762  6306                    1.618869e+07 1.3024e+07  19.5%  16.4  375s
  7767  6309 1.3024e+07  337  634 1.6189e+07 1.3024e+07  19.5%  16.4  381s
  7768  6310 1.3028e+07  246  637 1.6189e+07 1.3024e+07  19.5%  16.4  385s
  7772  6312 1.3028e+07  461  642 1.6189e+07 1.3024e+07  19.5%  16.4  390s
H 7773  5997                    1.611260e+07 1.3024e+07  19.2%  16.4  397s
  7775  5998 1.3029e+07  562  641 1.6113e+07 1.3024e+07  19.2%  16.3  400s
  7778  6000 1.3028e+07  370  646 1.6113e+07 1.3024e+07  19.2%  16.3  405s
  7780  6002 1.3026e+07   51  632 1.6113e+07 1.3024e+07  19.2%  16.3  410s
  7783  6004 1.3027e+07  143  640 1.6113e+07 1.3024e+07  19.2%  16.3  417s
  7785  6005 1.3028e+07  309  563 1.6113e+07 1.3024e+07  19.2%  16.3  429s
H 7785  5704                    1.607517e+07 1.3024e+07  19.0%  16.3  431s
H 7785  5418                    1.595734e+07 1.3024e+07  18.4%  16.3  433s
H 7785  5147                    1.592974e+07 1.3024e+07  18.2%  16.3  437s
H 7785  4889                    1.588649e+07 1.3024e+07  18.0%  16.3  439s
  7786  4890 1.3026e+07   29  563 1.5886e+07 1.3024e+07  18.0%  16.3  440s
  7789  4897 1.3024e+07   30  534 1.5886e+07 1.3024e+07  18.0%  26.6  445s
  7809  4958 1.3025e+07   33  566 1.5886e+07 1.3024e+07  18.0%  26.7  450s
  7861  5043 1.3025e+07   37  565 1.5886e+07 1.3024e+07  18.0%  26.6  455s
H 7963  4810                    1.588325e+07 1.3024e+07  18.0%  26.4  464s
H 7988  4569                    1.588251e+07 1.3024e+07  18.0%  26.4  464s
  8010  4846 1.3025e+07   53  547 1.5883e+07 1.3024e+07  18.0%  26.3  479s
  8294  5379 1.3025e+07   71  531 1.5883e+07 1.3024e+07  18.0%  26.1  506s
  8922  5700 1.3025e+07  110  477 1.5883e+07 1.3024e+07  18.0%  25.1  533s
  9460  5802 1.3025e+07  143  413 1.5883e+07 1.3024e+07  18.0%  24.3  580s
  9743  6471 1.3025e+07  143  414 1.5883e+07 1.3024e+07  18.0%  23.9  620s
 10533  6215 1.3025e+07  199  352 1.5883e+07 1.3024e+07  18.0%  22.8  720s
 10542  6284 1.3025e+07  199  350 1.5883e+07 1.3024e+07  18.0%  22.8  802s
 10616  6846 1.3025e+07  213  338 1.5883e+07 1.3024e+07  18.0%  22.7  853s
H10633  6619                    1.587585e+07 1.3024e+07  18.0%  22.7  853s
H10728  6377                    1.571538e+07 1.3024e+07  17.1%  22.6  853s
 11227  7050 1.3026e+07  213  338 1.5715e+07 1.3024e+07  17.1%  22.2  886s
H12090  7287                    1.571051e+07 1.3024e+07  17.1%  21.7  919s
H12201  7060                    1.571024e+07 1.3024e+07  17.1%  21.7  920s
H12271  6857                    1.570923e+07 1.3024e+07  17.1%  21.7  920s
H12598  6577                    1.570807e+07 1.3024e+07  17.1%  21.7  920s
 12814  7081 1.3026e+07  324  303 1.5708e+07 1.3024e+07  17.1%  21.7  947s
H13390  7272                    1.570007e+07 1.3024e+07  17.0%  22.3  983s
H13936  7486                    1.569517e+07 1.3024e+07  17.0%  22.7 1021s
H14015  7312                    1.569391e+07 1.3024e+07  17.0%  22.7 1021s
H14158  7125                    1.569163e+07 1.3024e+07  17.0%  22.7 1022s
H14322  6938                    1.569037e+07 1.3024e+07  17.0%  22.7 1022s
 14502  6886 1.3026e+07  444  283 1.5690e+07 1.3024e+07  17.0%  22.7 1096s
H14503  6760                    1.553262e+07 1.3024e+07  16.2%  22.7 1096s
H14510  7191                    1.552906e+07 1.3024e+07  16.1%  22.7 1136s
H14592  7174                    1.552737e+07 1.3024e+07  16.1%  22.6 1136s
H14923  7174                    1.552688e+07 1.3024e+07  16.1%  22.4 1136s
H15073  7914                    1.552076e+07 1.3024e+07  16.1%  22.3 1176s
H15827  8393                    1.551878e+07 1.3024e+07  16.1%  21.8 1199s
H15879  8393                    1.551734e+07 1.3024e+07  16.1%  21.8 1199s
H15945  8393                    1.551669e+07 1.3024e+07  16.1%  21.8 1199s
H16001  8393                    1.551467e+07 1.3024e+07  16.1%  21.8 1199s
H16257  8393                    1.551274e+07 1.3024e+07  16.0%  21.8 1199s
H16306  8810                    1.550859e+07 1.3024e+07  16.0%  21.8 1223s
H16731  9187                    1.550718e+07 1.3024e+07  16.0%  21.7 1247s
H16773  9187                    1.550626e+07 1.3024e+07  16.0%  21.7 1247s
H17073  9187                    1.550528e+07 1.3024e+07  16.0%  21.6 1247s
 17112  9620 1.3027e+07  603  257 1.5505e+07 1.3024e+07  16.0%  21.5 1265s
 17557  9990 1.3027e+07  633  247 1.5505e+07 1.3024e+07  16.0%  21.3 1283s
 17931 10234 1.3027e+07  659  242 1.5505e+07 1.3024e+07  16.0%  21.2 1301s
H18175 10242                    1.494249e+07 1.3024e+07  12.8%  21.5 1352s
H18178 10242                    1.493219e+07 1.3024e+07  12.8%  21.5 1352s
 18183 10603 1.3027e+07  678  242 1.4932e+07 1.3024e+07  12.8%  21.5 1381s
H18227 10603                    1.493215e+07 1.3024e+07  12.8%  21.5 1381s
H18274 10603                    1.493214e+07 1.3024e+07  12.8%  21.6 1381s
 18544 10801 1.3027e+07  700  242 1.4932e+07 1.3024e+07  12.8%  21.6 1424s
H18559 10801                    1.493153e+07 1.3024e+07  12.8%  21.6 1424s
H18614 10801                    1.493110e+07 1.3024e+07  12.8%  21.8 1424s
H18696 10801                    1.493107e+07 1.3024e+07  12.8%  22.0 1424s
 18742 11133 1.3029e+07  713  242 1.4931e+07 1.3024e+07  12.8%  22.1 1444s
 19076 11141 1.3029e+07  733  241 1.4931e+07 1.3024e+07  12.8%  23.2 1521s
 19084 11149 1.3028e+07  734  241 1.4931e+07 1.3024e+07  12.8%  23.2 1597s
H19090 11149                    1.490952e+07 1.3024e+07  12.6%  23.2 1597s
H19092 11232                    1.473642e+07 1.3024e+07  11.6%  23.2 1668s
H19097 11232                    1.473320e+07 1.3024e+07  11.6%  23.2 1668s
H19156 11232                    1.471967e+07 1.3024e+07  11.5%  23.4 1668s
 19175 11750 1.3028e+07  735  241 1.4720e+07 1.3024e+07  11.5%  23.4 1691s
 19693 12367 1.3028e+07  768  242 1.4720e+07 1.3024e+07  11.5%  23.7 1716s
 20314 13034 1.3029e+07  808  239 1.4720e+07 1.3024e+07  11.5%  23.6 1740s
 20991 13042 1.3028e+07  853  235 1.4720e+07 1.3024e+07  11.5%  23.5 1831s
H20992 13042                    1.452192e+07 1.3024e+07  10.3%  23.5 1832s
H20993 13042                    1.451172e+07 1.3024e+07  10.3%  23.5 1832s
H20995 13042                    1.450553e+07 1.3024e+07  10.2%  23.5 1832s
 20999 13388 1.3034e+07  853  235 1.4506e+07 1.3024e+07  10.2%  23.5 1859s
 21351 14027 1.3035e+07  875  233 1.4506e+07 1.3024e+07  10.2%  23.5 1887s
H21992 14035                    1.450270e+07 1.3024e+07  10.2%  23.3 2007s
H21993 14035                    1.449320e+07 1.3024e+07  10.1%  23.3 2007s
 22000 14740 1.3029e+07  916  230 1.4493e+07 1.3024e+07  10.1%  23.3 2038s
 22731 15487 1.3029e+07  965  221 1.4493e+07 1.3024e+07  10.1%  23.1 2070s
H23500 15495                    1.429611e+07 1.3024e+07  8.90%  22.9 2211s
H23501 15495                    1.429368e+07 1.3024e+07  8.88%  22.9 2211s
H23505 15495                    1.428227e+07 1.3024e+07  8.81%  22.9 2211s
H23507 15495                    1.428020e+07 1.3024e+07  8.80%  22.9 2211s
 23508 16218 1.3030e+07 1007  220 1.4280e+07 1.3024e+07  8.80%  22.9 2271s
H23601 16218                    1.427662e+07 1.3024e+07  8.77%  22.9 2271s
 24245 17101 1.3030e+07 1054  217 1.4277e+07 1.3024e+07  8.77%  22.7 2299s
 25133 17935 1.3030e+07 1109  216 1.4277e+07 1.3024e+07  8.77%  22.4 2335s
 25979 18507 1.3030e+07 1163  210 1.4277e+07 1.3024e+07  8.77%  22.0 2373s
 26571 19360 1.3031e+07 1200  208 1.4277e+07 1.3024e+07  8.77%  21.8 2414s
H27442 19368                    1.426975e+07 1.3024e+07  8.73%  21.4 2636s
H27444 19368                    1.426960e+07 1.3024e+07  8.73%  21.4 2636s
H27448 19368                    1.426769e+07 1.3024e+07  8.72%  21.4 2636s
 27450 20246 1.3031e+07 1251  199 1.4268e+07 1.3024e+07  8.72%  21.4 2682s
 28330 21059 1.3033e+07 1305  194 1.4268e+07 1.3024e+07  8.72%  21.0 2732s
 29147 21843 1.3033e+07 1352  189 1.4268e+07 1.3024e+07  8.72%  20.8 2784s
H29935 21843                    1.426554e+07 1.3024e+07  8.70%  20.8 3667s
 29936 21844 1.3031e+07 1205 15384 1.4266e+07 1.3024e+07  8.70%  20.8 3766s
 29938 21845 1.3028e+07  790  868 1.4266e+07 1.3024e+07  8.70%  20.8 3791s
 29939 21846 1.3031e+07 1252  791 1.4266e+07 1.3024e+07  8.70%  20.8 3801s
 29940 21847 1.3026e+07  369  695 1.4266e+07 1.3024e+07  8.70%  20.8 3806s
 29942 21848 1.3026e+07  393  605 1.4266e+07 1.3024e+07  8.70%  20.8 3810s
 29946 21851 1.3026e+07  250  671 1.4266e+07 1.3024e+07  8.70%  20.8 3819s
 29947 21851 1.3028e+07  770  665 1.4266e+07 1.3024e+07  8.70%  20.8 3822s
 29949 21853 1.3032e+07 1174  677 1.4266e+07 1.3024e+07  8.70%  20.8 3845s
H29951 20761                    1.425650e+07 1.3024e+07  8.64%  20.8 3875s
H29952 19723                    1.424854e+07 1.3024e+07  8.59%  20.8 3883s
 29954 19724 1.3029e+07  747  702 1.4249e+07 1.3024e+07  8.59%  20.8 3907s
 29956 19725 1.3033e+07 1260  724 1.4249e+07 1.3024e+07  8.59%  20.8 3910s
H29956 18739                    1.424491e+07 1.3024e+07  8.57%  20.8 3936s
 29960 18742 1.3034e+07 1364  751 1.4245e+07 1.3024e+07  8.57%  20.8 3965s
H29962 17805                    1.423940e+07 1.3024e+07  8.53%  20.8 3986s
H29963 16915                    1.422401e+07 1.3024e+07  8.43%  20.8 3994s
 29965 16916 1.3024e+07   66  759 1.4224e+07 1.3024e+07  8.43%  20.8 4016s
H29966 16071                    1.420152e+07 1.3024e+07  8.29%  20.8 4019s
 29967 16072 1.3029e+07  862  769 1.4202e+07 1.3024e+07  8.29%  20.8 4036s
 29969 16073 1.3034e+07 1294  756 1.4202e+07 1.3024e+07  8.29%  20.8 4055s
H29970 15270                    1.418786e+07 1.3024e+07  8.20%  20.8 4075s
 29973 15272 1.3025e+07  111  776 1.4188e+07 1.3024e+07  8.20%  20.8 4095s
 29975 15273 1.3037e+07 1409  778 1.4188e+07 1.3025e+07  8.20%  20.8 4115s
H29975 14508                    1.416975e+07 1.3025e+07  8.08%  20.8 4125s
H29976 13783                    1.305774e+07 1.3025e+07  0.25%  20.8 4147s

Cutting planes:
  Learned: 2
  Gomory: 515
  Cover: 420
  Implied bound: 164
  Projected implied bound: 59
  MIR: 1622
  Mixing: 16
  Flow cover: 1215
  Network: 3
  RLT: 61
  Relax-and-lift: 263

Explored 29976 nodes (781967 simplex iterations) in 4148.18 seconds (1648.93 work units)
Thread count was 8 (of 8 available processors)

Solution count 10: 1.30577e+07 1.41697e+07 1.41879e+07 ... 1.42655e+07

Optimal solution found (tolerance 8.00e-02)
Best objective 1.305773826060e+07, best bound 1.302450232629e+07, gap 0.2545%

